50
    1    45    45
    2    49    49
    3    43    43
    4    46    46
    5    17    17
    6    29    29
    7    50    50
    8    15    15
    9    41    41
   10    23    23
   11    41    41
   12     2     2
   13    20    20
   14    49    49
   15    31    31
   16     1     1
   17    46    46
   18    46    46
   19     9     9
   20     4     4
   21     7     7
   22     4     4
   23    50    50
   24    20    20
   25    43    43
   26     8     8
   27    11    11
   28    27    27
   29     6     6
   30    48    48
   31     4     4
   32    17    17
   33    10    10
   34    11    11
   35    25    25
   36    15    15
   37     8     8
   38    20    20
   39     7     7
   40    29    29
   41    14    14
   42    41    41
   43    13    13
   44     4     4
   45     1     1
   46     1     1
   47    46    46
   48    43    43
   49    50    50
   50    46    46
824
